c NETGEN flow network generator (C version)
c  Problem 1 input parameters
c  ---------------------------
c   Random seed:            13502460
c   Number of nodes:             100
c   Source nodes:                 70
c   Sink nodes:                   30
c   Number of arcs:              150
c   Minimum arc cost:              1
c   Maximum arc cost:            100
c   Total supply:                100
c   Transshipment -
c     Sources:                     0
c     Sinks:                       0
c   Skeleton arcs -
c     With max cost:               0%
c     Capacitated:                 0%
c   Minimum arc capacity:          0
c   Maximum arc capacity:          0
c
c  *** Minimum cost flow ***
c
p min 100 151
n 1 1
n 2 1
n 3 1
n 4 1
n 5 1
n 6 1
n 7 1
n 8 1
n 9 1
n 10 1
n 11 1
n 12 1
n 13 1
n 14 1
n 15 1
n 16 1
n 17 1
n 18 1
n 19 1
n 20 1
n 21 1
n 22 1
n 23 1
n 24 1
n 25 1
n 26 1
n 27 1
n 28 1
n 29 1
n 30 1
n 31 1
n 32 1
n 33 1
n 34 1
n 35 1
n 36 1
n 37 1
n 38 1
n 39 1
n 40 1
n 41 1
n 42 1
n 43 1
n 44 1
n 45 1
n 46 1
n 47 1
n 48 1
n 49 1
n 50 1
n 51 1
n 52 31
n 53 1
n 54 1
n 55 1
n 56 1
n 57 1
n 58 1
n 59 1
n 60 1
n 61 1
n 62 1
n 63 1
n 64 1
n 65 1
n 66 1
n 67 1
n 68 1
n 69 1
n 70 1
n 71 -2
n 72 -4
n 73 -1
n 74 -2
n 75 -2
n 76 -1
n 77 -6
n 78 -1
n 80 -1
n 81 -2
n 82 -3
n 83 -18
n 84 -1
n 85 -1
n 86 -19
n 87 -4
n 88 -1
n 89 -5
n 91 -3
n 93 -2
n 94 -5
n 95 -3
n 96 -2
n 97 -1
n 98 -5
n 99 -1
n 100 -4
a 1 98 0 100 25
a 1 81 0 100 56
a 1 95 0 100 65
a 1 91 0 100 14
a 2 98 0 100 91
a 2 97 0 100 76
a 2 81 0 100 25
a 3 86 0 100 41
a 3 89 0 100 24
a 3 79 0 100 45
a 3 82 0 100 2
a 4 72 0 100 50
a 4 84 0 100 15
a 4 97 0 100 78
a 4 89 0 100 94
a 5 89 0 100 61
a 5 77 0 100 72
a 5 91 0 100 45
a 5 78 0 100 38
a 6 95 0 100 4
a 6 90 0 100 84
a 7 81 0 100 81
a 7 88 0 100 18
a 8 74 0 100 27
a 8 73 0 100 62
a 9 83 0 100 31
a 9 71 0 100 32
a 10 84 0 100 49
a 10 73 0 100 7
a 11 80 0 100 67
a 11 90 0 100 26
a 12 98 0 100 26
a 12 81 0 100 92
a 13 77 0 100 48
a 13 93 0 100 78
a 14 89 0 100 53
a 14 92 0 100 49
a 15 82 0 100 36
a 15 95 0 100 46
a 16 75 0 100 47
a 16 91 0 100 4
a 17 78 0 100 31
a 17 89 0 100 30
a 18 100 0 100 45
a 18 77 0 100 59
a 19 88 0 100 72
a 19 91 0 100 67
a 20 94 0 100 13
a 20 84 0 100 74
a 21 86 0 100 78
a 21 84 0 100 45
a 22 93 0 100 53
a 22 98 0 100 32
a 23 94 0 100 15
a 23 72 0 100 49
a 24 100 0 100 71
a 24 76 0 100 68
a 25 71 0 100 16
a 25 80 0 100 63
a 26 96 0 100 47
a 26 76 0 100 41
a 27 77 0 100 81
a 27 90 0 100 51
a 28 87 0 100 10
a 28 77 0 100 38
a 29 99 0 100 4
a 29 77 0 100 82
a 30 73 0 100 50
a 30 99 0 100 43
a 31 87 0 100 10
a 31 79 0 100 44
a 32 72 0 100 34
a 32 78 0 100 78
a 33 98 0 100 44
a 33 91 0 100 100
a 34 77 0 100 83
a 34 84 0 100 92
a 35 77 0 100 17
a 35 86 0 100 28
a 36 89 0 100 44
a 36 93 0 100 41
a 37 81 0 100 80
a 37 99 0 100 85
a 38 77 0 100 38
a 38 100 0 100 22
a 39 98 0 100 42
a 39 76 0 100 82
a 40 87 0 100 84
a 40 78 0 100 62
a 41 87 0 100 50
a 41 71 0 100 48
a 42 91 0 100 29
a 42 75 0 100 94
a 43 83 0 100 54
a 43 88 0 100 11
a 44 94 0 100 62
a 44 72 0 100 27
a 45 91 0 100 6
a 45 80 0 100 7
a 46 86 0 100 46
a 46 92 0 100 68
a 47 95 0 100 79
a 47 93 0 100 79
a 48 100 0 100 89
a 48 79 0 100 43
a 49 76 0 100 100
a 49 95 0 100 80
a 50 97 0 100 86
a 50 98 0 100 70
a 51 71 0 100 13
a 51 99 0 100 14
a 52 83 0 100 22
a 52 86 0 100 25
a 53 96 0 100 1
a 53 86 0 100 95
a 54 91 0 100 68
a 54 96 0 100 85
a 55 72 0 100 51
a 55 90 0 100 39
a 56 94 0 100 57
a 56 99 0 100 43
a 57 74 0 100 23
a 57 92 0 100 56
a 58 89 0 100 44
a 58 80 0 100 18
a 59 75 0 100 33
a 59 94 0 100 77
a 60 82 0 100 81
a 60 75 0 100 85
a 61 77 0 100 1
a 61 91 0 100 57
a 62 85 0 100 49
a 62 88 0 100 29
a 63 94 0 100 5
a 63 99 0 100 68
a 64 86 0 100 98
a 64 98 0 100 49
a 65 82 0 100 94
a 65 74 0 100 75
a 66 89 0 100 53
a 66 100 0 100 96
a 67 100 0 100 80
a 67 85 0 100 67
a 68 95 0 100 45
a 68 90 0 100 94
a 69 72 0 100 49
a 69 88 0 100 45
a 70 93 0 100 25
a 70 92 0 100 52
a 70 79 0 100 45
a 70 90 0 100 96
